# Generated by ConicBenchmarkUtilities.jl
VER
2

OBJSENSE
MIN

VAR
217 1
F 217

INT
79
11
12
13
14
15
16
17
18
19
20
21
22
23
24
25
26
27
28
29
30
31
32
33
34
42
43
44
45
46
47
48
49
50
51
52
53
54
55
56
125
126
127
128
129
130
131
132
134
135
136
138
139
140
142
143
144
146
147
148
150
151
152
154
155
156
158
159
160
162
163
164
165
166
167
168
169
170
171
172

CON
669 647
L= 1
L= 1
L= 1
L= 1
L= 1
L= 1
L= 1
L= 1
L= 1
L= 1
L= 1
L= 1
L= 1
L= 1
L= 1
L= 1
L= 1
L= 1
L= 1
L= 1
L= 1
L= 1
L= 1
L= 1
L= 1
L= 1
L= 1
L= 1
L= 1
L= 1
L= 1
L= 1
L= 1
L= 1
L= 1
L= 1
L+ 1
L+ 1
L+ 1
L+ 1
L+ 1
L+ 1
L+ 1
L+ 1
L+ 1
L+ 1
L+ 1
L= 1
L= 1
L= 1
L= 1
L= 1
L= 1
L= 1
L= 1
L= 1
L= 1
L= 1
L= 1
L= 1
L= 1
L= 1
L= 1
L= 1
L= 1
L= 1
L= 1
L+ 1
L+ 1
L+ 1
L+ 1
L+ 1
L+ 1
L+ 1
L+ 1
L+ 1
L+ 1
L+ 1
L+ 1
L+ 1
L+ 1
L+ 1
L+ 1
L+ 1
L+ 1
L+ 1
L+ 1
L+ 1
L+ 1
L+ 1
L+ 1
L+ 1
L+ 1
L+ 1
L+ 1
L+ 1
L+ 1
L+ 1
L+ 1
L+ 1
L+ 1
L+ 1
L+ 1
L+ 1
L+ 1
L+ 1
L+ 1
L+ 1
L+ 1
L+ 1
L+ 1
L+ 1
L+ 1
L+ 1
L+ 1
L+ 1
L+ 1
L+ 1
L+ 1
L+ 1
L+ 1
L+ 1
L+ 1
L+ 1
L+ 1
L+ 1
L+ 1
L+ 1
L+ 1
L+ 1
L+ 1
L+ 1
L+ 1
L+ 1
L+ 1
L+ 1
L+ 1
L+ 1
L+ 1
L+ 1
L+ 1
L+ 1
L+ 1
L+ 1
L+ 1
L+ 1
L+ 1
L+ 1
L+ 1
L+ 1
L+ 1
L+ 1
L+ 1
L+ 1
L+ 1
L+ 1
L+ 1
L+ 1
L+ 1
L+ 1
L+ 1
L+ 1
L+ 1
L+ 1
L+ 1
L+ 1
L+ 1
L+ 1
L+ 1
L+ 1
L+ 1
L+ 1
L+ 1
L+ 1
L+ 1
L+ 1
L+ 1
L+ 1
L+ 1
L+ 1
L+ 1
L+ 1
L+ 1
L+ 1
L+ 1
L+ 1
L+ 1
L+ 1
L+ 1
L+ 1
L+ 1
L+ 1
L+ 1
L+ 1
L+ 1
L+ 1
L+ 1
L+ 1
L+ 1
L+ 1
L+ 1
L+ 1
L+ 1
L+ 1
L+ 1
L+ 1
L+ 1
L+ 1
L+ 1
L+ 1
L+ 1
L+ 1
L+ 1
L+ 1
L+ 1
L+ 1
L+ 1
L+ 1
L+ 1
L+ 1
L+ 1
L+ 1
L+ 1
L+ 1
L+ 1
L+ 1
L+ 1
L+ 1
L+ 1
L+ 1
L+ 1
L+ 1
L+ 1
L+ 1
L+ 1
L+ 1
L+ 1
L+ 1
L+ 1
L+ 1
L+ 1
L+ 1
L+ 1
L+ 1
L+ 1
L+ 1
L+ 1
L= 1
L= 1
L= 1
L= 1
L= 1
L= 1
L= 1
L= 1
L= 1
L= 1
L= 1
L= 1
L= 1
L= 1
L= 1
L= 1
L= 1
L= 1
L= 1
L= 1
L= 1
L= 1
EXP 3
L+ 1
L+ 1
L+ 1
EXP 3
L+ 1
L+ 1
L+ 1
L+ 1
L+ 1
L+ 1
L+ 1
EXP 3
L+ 1
L+ 1
L+ 1
L+ 1
L+ 1
L+ 1
L+ 1
L+ 1
L+ 1
L+ 1
EXP 3
L+ 1
L+ 1
L+ 1
EXP 3
L+ 1
L+ 1
L+ 1
EXP 3
L+ 1
L+ 1
L+ 1
L+ 1
L+ 1
L+ 1
L+ 1
L+ 1
L+ 1
L+ 1
L+ 1
EXP 3
L+ 1
L+ 1
L+ 1
L+ 1
L+ 1
L+ 1
L+ 1
L+ 1
L+ 1
L+ 1
EXP 3
L+ 1
L+ 1
L+ 1
EXP 3
L+ 1
L+ 1
L+ 1
EXP 3
L+ 1
EXP 3
L+ 1
L+ 1
L+ 1
L+ 1
L= 1
L+ 1
L+ 1
L+ 1
L+ 1
L+ 1
L+ 1
L+ 1
L+ 1
L+ 1
L+ 1
L+ 1
L+ 1
L+ 1
L+ 1
L+ 1
L+ 1
L+ 1
L+ 1
L+ 1
L+ 1
L+ 1
L+ 1
L+ 1
L+ 1
L+ 1
L+ 1
L+ 1
L+ 1
L+ 1
L+ 1
L+ 1
L+ 1
L+ 1
L+ 1
L+ 1
L+ 1
L+ 1
L+ 1
L+ 1
L+ 1
L+ 1
L+ 1
L+ 1
L+ 1
L+ 1
L+ 1
L+ 1
L+ 1
L+ 1
L+ 1
L+ 1
L+ 1
L+ 1
L+ 1
L+ 1
L+ 1
L+ 1
L+ 1
L+ 1
L+ 1
L+ 1
L+ 1
L+ 1
L+ 1
L+ 1
L+ 1
L+ 1
L+ 1
L+ 1
L+ 1
L+ 1
L+ 1
L+ 1
L+ 1
L+ 1
L+ 1
L+ 1
L+ 1
L+ 1
L+ 1
L+ 1
L+ 1
L+ 1
L+ 1
L+ 1
L+ 1
L+ 1
L+ 1
L+ 1
L+ 1
L+ 1
L+ 1
L+ 1
L+ 1
L+ 1
L+ 1
L+ 1
L+ 1
L+ 1
L+ 1
L+ 1
L+ 1
L+ 1
L+ 1
L+ 1
L+ 1
L+ 1
L+ 1
L+ 1
L+ 1
L+ 1
L+ 1
L+ 1
L+ 1
L+ 1
L+ 1
L+ 1
L+ 1
L+ 1
L+ 1
L+ 1
L+ 1
L+ 1
L+ 1
L+ 1
L+ 1
L+ 1
L+ 1
L+ 1
L+ 1
L+ 1
L+ 1
L+ 1
L+ 1
L+ 1
L+ 1
L+ 1
L+ 1
L+ 1
L+ 1
L+ 1
L+ 1
L+ 1
L+ 1
L+ 1
L+ 1
L+ 1
L+ 1
L+ 1
L+ 1
L+ 1
L+ 1
L+ 1
L+ 1
L+ 1
L+ 1
L+ 1
L+ 1
L+ 1
L+ 1
L+ 1
L+ 1
L+ 1
L+ 1
L+ 1
L+ 1
L+ 1
L+ 1
L+ 1
L+ 1
L+ 1
L+ 1
L+ 1
L+ 1
L+ 1
L+ 1
L+ 1
L+ 1
L+ 1
L+ 1
L+ 1
L+ 1
L+ 1
L+ 1
L+ 1
L+ 1
L+ 1
L+ 1
L+ 1
L+ 1
L+ 1
L+ 1
L+ 1
L+ 1
L+ 1
L+ 1
L+ 1
L+ 1
L+ 1
L+ 1
L+ 1
L+ 1
L+ 1
L+ 1
L+ 1
L+ 1
L+ 1
L+ 1
L+ 1
L+ 1
L+ 1
L+ 1
L+ 1
L+ 1
L+ 1
L+ 1
L+ 1
L+ 1
L+ 1
L+ 1
L+ 1
L+ 1
L+ 1
L+ 1
L+ 1
L+ 1
L+ 1
L+ 1
L+ 1
L+ 1
L+ 1
L+ 1
L+ 1
L+ 1
L+ 1
L+ 1
L+ 1
L+ 1
L+ 1
L+ 1
L+ 1
L+ 1
L+ 1
L+ 1
L+ 1
L+ 1
L+ 1
L+ 1
L+ 1
L+ 1
L+ 1
L+ 1
L+ 1
L+ 1
L+ 1
L+ 1
L+ 1
L+ 1
L+ 1
L+ 1
L+ 1
L+ 1
L+ 1
L+ 1
L+ 1
L+ 1
L+ 1
L+ 1
L+ 1
L+ 1
L+ 1
L+ 1
L+ 1
L+ 1
L+ 1
L+ 1
L+ 1
L+ 1
L+ 1
L+ 1
L+ 1
L+ 1
L+ 1
L+ 1
L+ 1
L+ 1
L+ 1
L+ 1
L+ 1
L+ 1
L+ 1
L+ 1
L+ 1
L+ 1
L+ 1
L+ 1
L+ 1
L+ 1
L+ 1
L+ 1
L+ 1
L+ 1
L+ 1
L+ 1
L+ 1
L+ 1
L+ 1
L+ 1

OBJACOORD
1
57 -1.0

ACOORD
1220
0 0 -4.0
1 0 1.0
42 0 -1.0
47 0 1.0
246 0 -4.0
381 0 1.0
0 1 -8.0
6 1 1.0
43 1 -1.0
49 1 1.0
246 1 -8.0
386 1 1.0
0 2 -5.0
10 2 1.0
44 2 -1.0
51 2 1.0
246 2 -5.0
390 2 1.0
0 3 -8.0
22 3 1.0
45 3 -1.0
55 3 1.0
246 3 -8.0
402 3 1.0
0 4 23.0
26 4 1.0
36 4 1.0
56 4 -1.0
406 4 1.0
0 5 19.0
28 5 1.0
37 5 1.0
57 5 -1.0
408 5 1.0
0 6 -10.0
29 6 1.0
46 6 -1.0
58 6 1.0
246 6 -10.0
409 6 1.0
0 7 2.0
32 7 1.0
38 7 1.0
255 7 -1.0
412 7 1.0
0 8 3.0
33 8 1.0
39 8 1.0
256 8 -1.0
413 8 1.0
0 9 5.0
34 9 1.0
40 9 1.0
257 9 -1.0
414 9 1.0
0 10 4.0
35 10 1.0
41 10 1.0
258 10 -1.0
415 10 1.0
0 11 -6.0
71 11 -148.75
75 11 -148.75
151 11 -25.0
247 11 1.0
469 11 1.0
470 11 -1.0
0 12 -40.0
72 12 -148.75
76 12 -148.75
152 12 15.0
247 12 1.0
471 12 1.0
472 12 -1.0
0 13 -46.0
73 13 -148.75
77 13 -148.75
153 13 15.0
247 13 1.0
473 13 1.0
474 13 -1.0
0 14 -7.0
79 14 -254.045833333333
83 14 -166.25
155 14 -56.0
248 14 1.0
477 14 1.0
478 14 -1.0
0 15 -30.0
80 15 -254.045833333333
84 15 -166.25
156 15 -36.0
248 15 1.0
479 15 1.0
480 15 -1.0
0 16 -37.0
81 16 -254.045833333333
85 16 -166.25
157 16 -36.0
248 16 1.0
481 16 1.0
482 16 -1.0
0 17 -7.0
87 17 -20.4166666666667
91 17 -20.4166666666667
95 17 -20.4166666666667
99 17 -20.4166666666667
159 17 -10.0
249 17 1.0
485 17 1.0
486 17 -1.0
0 18 -15.0
88 18 -20.4166666666667
92 18 -20.4166666666667
96 18 -20.4166666666667
100 18 -20.4166666666667
249 18 1.0
487 18 1.0
488 18 -1.0
0 19 -22.0
89 19 -20.4166666666667
93 19 -20.4166666666667
97 19 -20.4166666666667
101 19 -20.4166666666667
249 19 1.0
489 19 1.0
490 19 -1.0
0 20 -11.0
103 20 -18.75
107 20 -18.75
163 20 -10.0
250 20 1.0
493 20 1.0
494 20 -1.0
0 21 -13.0
104 21 -18.75
108 21 -18.75
164 21 -5.0
250 21 1.0
495 21 1.0
496 21 -1.0
0 22 -24.0
105 22 -18.75
109 22 -18.75
165 22 -5.0
250 22 1.0
497 22 1.0
498 22 -1.0
0 23 -10.0
111 23 -17.8125
115 23 -17.8125
119 23 -17.8125
123 23 -17.8125
167 23 -15.0
251 23 1.0
501 23 1.0
502 23 -1.0
0 24 -13.0
112 24 -17.8125
116 24 -17.8125
120 24 -17.8125
124 24 -17.8125
168 24 -5.0
251 24 1.0
503 24 1.0
504 24 -1.0
0 25 -23.0
113 25 -17.8125
117 25 -17.8125
121 25 -17.8125
125 25 -17.8125
169 25 -5.0
251 25 1.0
505 25 1.0
506 25 -1.0
0 26 -9.0
127 26 -66.9375
131 26 -15.9375
171 26 -29.0
252 26 1.0
509 26 1.0
510 26 -1.0
0 27 -30.0
128 27 -66.9375
132 27 -15.9375
172 27 6.0
252 27 1.0
511 27 1.0
512 27 -1.0
0 28 -39.0
129 28 -66.9375
133 28 -15.9375
173 28 6.0
252 28 1.0
513 28 1.0
514 28 -1.0
0 29 -8.0
135 29 -94.4571428571429
139 29 -57.0
175 29 -29.0
253 29 1.0
517 29 1.0
518 29 -1.0
0 30 -20.0
136 30 -94.4571428571429
140 30 -57.0
176 30 -4.0
253 30 1.0
519 30 1.0
520 30 -1.0
0 31 -28.0
137 31 -94.4571428571429
141 31 -57.0
177 31 -4.0
253 31 1.0
521 31 1.0
522 31 -1.0
0 32 -8.0
143 32 -39.4285714285714
147 32 -39.4285714285714
179 32 -15.0
254 32 1.0
525 32 1.0
526 32 -1.0
0 33 -15.0
144 33 -39.4285714285714
148 33 -39.4285714285714
180 33 5.0
254 33 1.0
527 33 1.0
528 33 -1.0
0 34 -23.0
145 34 -39.4285714285714
149 34 -39.4285714285714
181 34 5.0
254 34 1.0
529 34 1.0
530 34 -1.0
0 35 5.0
261 35 -1.0
602 35 1.0
0 36 500.0
267 36 1.0
320 36 -1.0
321 36 1.0
323 36 -1.0
621 36 1.0
0 37 350.0
268 37 1.0
327 37 -1.0
329 37 -1.0
622 37 1.0
0 38 200.0
330 38 -1.0
331 38 1.0
332 38 -1.0
333 38 1.0
336 38 -1.0
635 38 1.0
0 39 250.0
340 39 -1.0
342 39 -1.0
636 39 1.0
0 40 200.0
346 40 -1.0
348 40 -1.0
637 40 1.0
0 41 200.0
352 41 -1.0
356 41 -1.0
359 41 -1.0
638 41 1.0
0 42 -5.0
272 42 -1.0
273 42 10.0
274 42 2.39789527279837
360 42 1.0
368 42 1.0
369 42 1.0
370 42 1.0
639 42 1.0
640 42 -1.0
0 43 -8.0
278 43 -1.0
279 43 10.0
280 43 2.87747432735804
360 43 1.0
368 43 1.0
369 43 1.0
370 43 1.0
641 43 1.0
642 43 -1.0
0 44 -6.0
281 44 -1.0
282 44 -1.0
283 44 2.87747432735804
284 44 2.15810574551853
361 44 -1.0
368 44 -1.0
371 44 1.0
372 44 1.0
643 44 1.0
644 44 -1.0
0 45 -10.0
288 45 -1.0
289 45 2.87747432735804
290 45 2.03277599268042
364 45 -1.0
369 45 -1.0
373 45 1.0
645 45 1.0
646 45 -1.0
0 46 -6.0
291 46 -1.0
292 46 -1.0
293 46 -1.0
294 46 -1.0
295 46 2.87747432735804
296 46 7.0
297 46 3.5
366 46 -1.0
370 46 -1.0
374 46 1.0
375 46 1.0
376 46 1.0
647 46 1.0
648 46 -1.0
0 47 -7.0
301 47 -1.0
302 47 2.15810574551853
303 47 1.43746550029693
361 47 1.0
362 47 -1.0
371 47 -1.0
377 47 1.0
649 47 1.0
650 47 -1.0
0 48 -4.0
307 48 -1.0
308 48 2.15810574551853
309 48 1.03497516021379
361 48 1.0
363 48 -1.0
372 48 -1.0
378 48 1.0
651 48 1.0
652 48 -1.0
0 49 -5.0
313 49 -1.0
314 49 2.03277599268042
315 49 1.10947836929589
364 49 1.0
365 49 -1.0
373 49 -1.0
379 49 1.0
380 49 1.0
653 49 1.0
654 49 -1.0
0 50 -2.0
316 50 -1.0
317 50 -1.0
318 50 3.5
319 50 3.15
366 50 1.0
367 50 -1.0
374 50 -1.0
655 50 1.0
656 50 -1.0
0 51 -4.0
320 51 -1.0
321 51 -1.0
322 51 3.5
323 51 2.1
366 51 1.0
375 51 -1.0
657 51 1.0
658 51 -1.0
0 52 -3.0
327 52 -1.0
328 52 3.5
329 52 1.6544851364539
366 52 1.0
376 52 -1.0
659 52 1.0
660 52 -1.0
0 53 -7.0
330 53 -1.0
331 53 -1.0
332 53 -1.0
333 53 -1.0
334 53 1.43746550029693
335 53 5.0
336 53 5.0
362 53 1.0
377 53 -1.0
661 53 1.0
662 53 -1.0
0 54 -3.0
340 54 -1.0
341 54 1.03497516021379
342 54 0.710483612536911
363 54 1.0
378 54 -1.0
663 54 1.0
664 54 -1.0
0 55 -2.0
346 55 -1.0
347 55 1.10947836929589
348 55 0.522508489006913
365 55 1.0
379 55 -1.0
665 55 1.0
666 55 -1.0
0 56 -4.0
352 56 -1.0
356 56 -1.0
357 56 1.10947836929589
358 56 8.15
359 56 1.43894002153683
365 56 1.0
367 56 1.0
380 56 -1.0
667 56 1.0
668 56 -1.0
0 57 -1.0
1 58 -0.2
416 58 1.0
2 59 1.0
47 59 -1.0
59 59 1.0
150 59 -1.0
151 59 -1.0
152 59 -1.0
153 59 -1.0
382 59 1.0
2 60 -0.2
70 60 0.8
71 60 0.85
72 60 0.8
73 60 0.85
74 60 -0.8
75 60 -0.85
76 60 -0.8
77 60 -0.85
417 60 1.0
3 61 1.0
47 61 -1.0
60 61 1.0
154 61 -1.0
155 61 -1.0
156 61 -1.0
157 61 -1.0
383 61 1.0
3 62 -0.2
67 62 -1.0
78 62 0.9
79 62 0.95
80 62 0.9
81 62 0.95
82 62 -0.9
83 62 -0.95
84 62 -0.9
85 62 -0.95
418 62 1.0
4 63 1.0
48 63 1.0
59 63 -1.0
384 63 1.0
4 64 -0.2
70 64 -1.0
71 64 -1.0
72 64 -1.0
73 64 -1.0
74 64 1.0
75 64 1.0
76 64 1.0
77 64 1.0
419 64 1.0
5 65 1.0
48 65 -1.0
255 65 1.0
385 65 1.0
5 66 -0.2
420 66 1.0
6 67 -0.5
421 67 1.0
7 68 1.0
49 68 -1.0
60 68 1.0
154 68 -1.0
155 68 -1.0
156 68 -1.0
157 68 -1.0
387 68 1.0
7 69 -0.5
67 69 1.0
422 69 1.0
8 70 1.0
50 70 1.0
60 70 -1.0
388 70 1.0
8 71 -0.7
78 71 -1.0
79 71 -1.0
80 71 -1.0
81 71 -1.0
82 71 1.0
83 71 1.0
84 71 1.0
85 71 1.0
423 71 1.0
9 72 1.0
50 72 -1.0
256 72 1.0
389 72 1.0
9 73 -0.7
424 73 1.0
10 74 -1.2
425 74 1.0
11 75 1.0
51 75 -1.0
61 75 1.0
158 75 -1.0
159 75 -1.0
160 75 -1.0
161 75 -1.0
391 75 1.0
11 76 -1.2
86 76 0.85
87 76 0.98
88 76 0.85
89 76 0.98
90 76 0.85
91 76 0.98
92 76 0.85
93 76 0.98
94 76 -0.85
95 76 -0.98
96 76 -0.85
97 76 -0.98
98 76 -0.85
99 76 -0.98
100 76 -0.85
101 76 -0.98
426 76 1.0
12 77 1.0
49 77 1.0
61 77 -1.0
392 77 1.0
12 78 -0.5
86 78 -1.0
87 78 -1.0
88 78 -1.0
89 78 -1.0
94 78 1.0
95 78 1.0
96 78 1.0
97 78 1.0
427 78 1.0
13 79 1.0
50 79 1.0
61 79 -1.0
393 79 1.0
13 80 -0.7
90 80 -1.0
91 80 -1.0
92 80 -1.0
93 80 -1.0
98 80 1.0
99 80 1.0
100 80 1.0
101 80 1.0
428 80 1.0
14 81 1.0
51 81 -1.0
62 81 1.0
162 81 -1.0
163 81 -1.0
164 81 -1.0
165 81 -1.0
394 81 1.0
14 82 -1.2
102 82 0.85
103 82 0.9
104 82 0.85
105 82 0.9
106 82 -0.85
107 82 -0.9
108 82 -0.85
109 82 -0.9
429 82 1.0
15 83 1.0
52 83 1.0
62 83 -1.0
395 83 1.0
15 84 -1.2
102 84 -1.0
103 84 -1.0
104 84 -1.0
105 84 -1.0
106 84 1.0
107 84 1.0
108 84 1.0
109 84 1.0
430 84 1.0
16 85 1.0
52 85 -1.0
64 85 1.0
170 85 -1.0
171 85 -1.0
172 85 -1.0
173 85 -1.0
396 85 1.0
16 86 -1.2
68 86 -1.0
126 86 0.8
127 86 0.85
128 86 0.8
129 86 0.85
130 86 -0.8
131 86 -0.85
132 86 -0.8
133 86 -0.85
431 86 1.0
17 87 1.0
52 87 -1.0
63 87 1.0
166 87 -1.0
167 87 -1.0
168 87 -1.0
169 87 -1.0
397 87 1.0
17 88 -1.2
110 88 0.75
111 88 0.95
112 88 0.9
113 88 0.95
114 88 0.75
115 88 0.95
116 88 0.9
117 88 0.95
118 88 -0.75
119 88 -0.95
120 88 -0.9
121 88 -0.95
122 88 -0.75
123 88 -0.95
124 88 -0.9
125 88 -0.95
432 88 1.0
18 89 1.0
53 89 1.0
63 89 -1.0
398 89 1.0
18 90 -0.3
110 90 -1.0
111 90 -1.0
112 90 -1.0
113 90 -1.0
118 90 1.0
119 90 1.0
120 90 1.0
121 90 1.0
433 90 1.0
19 91 1.0
54 91 1.0
63 91 -1.0
399 91 1.0
19 92 -0.9
114 92 -1.0
115 92 -1.0
116 92 -1.0
117 92 -1.0
122 92 1.0
123 92 1.0
124 92 1.0
125 92 1.0
434 92 1.0
20 93 1.0
53 93 -1.0
257 93 1.0
400 93 1.0
20 94 -0.3
435 94 1.0
21 95 1.0
54 95 -1.0
258 95 1.0
401 95 1.0
21 96 -0.9
436 96 1.0
22 97 -0.4
437 97 1.0
23 98 1.0
55 98 -1.0
64 98 1.0
170 98 -1.0
171 98 -1.0
172 98 -1.0
173 98 -1.0
403 98 1.0
23 99 -0.4
68 99 1.0
438 99 1.0
24 100 1.0
55 100 -1.0
65 100 1.0
174 100 -1.0
175 100 -1.0
176 100 -1.0
177 100 -1.0
404 100 1.0
24 101 -0.4
69 101 -1.0
134 101 0.85
135 101 0.95
136 101 0.85
137 101 0.95
138 101 -0.85
139 101 -0.95
140 101 -0.85
141 101 -0.95
439 101 1.0
25 102 1.0
56 102 1.0
64 102 -1.0
405 102 1.0
25 103 -1.6
126 103 -1.0
127 103 -1.0
128 103 -1.0
129 103 -1.0
130 103 1.0
131 103 1.0
132 103 1.0
133 103 1.0
440 103 1.0
26 104 -1.6
441 104 1.0
27 105 1.0
57 105 1.0
65 105 -1.0
407 105 1.0
27 106 -1.1
134 106 -1.0
135 106 -1.0
136 106 -1.0
137 106 -1.0
138 106 1.0
139 106 1.0
140 106 1.0
141 106 1.0
442 106 1.0
28 107 -1.1
443 107 1.0
29 108 -0.7
444 108 1.0
30 109 1.0
58 109 -1.0
66 109 1.0
178 109 -1.0
179 109 -1.0
180 109 -1.0
181 109 -1.0
410 109 1.0
30 110 -0.7
142 110 0.8
143 110 0.92
144 110 0.8
145 110 0.92
146 110 -0.8
147 110 -0.92
148 110 -0.8
149 110 -0.92
445 110 1.0
31 111 1.0
65 111 1.0
66 111 -1.0
174 111 -1.0
175 111 -1.0
176 111 -1.0
177 111 -1.0
411 111 1.0
31 112 -0.7
69 112 1.0
142 112 -1.0
143 112 -1.0
144 112 -1.0
145 112 -1.0
146 112 1.0
147 112 1.0
148 112 1.0
149 112 1.0
446 112 1.0
32 113 -0.2
447 113 1.0
33 114 -0.7
448 114 1.0
34 115 -0.3
449 115 1.0
35 116 -0.9
450 116 1.0
59 117 -1.0
451 117 1.0
60 118 -1.0
452 118 1.0
61 119 -1.0
453 119 1.0
62 120 -1.0
454 120 1.0
63 121 -1.0
455 121 1.0
64 122 -1.0
456 122 1.0
65 123 -1.0
457 123 1.0
66 124 -1.0
458 124 1.0
70 125 -148.75
74 125 -148.75
150 125 -25.0
247 125 1.0
467 125 1.0
468 125 -1.0
78 126 -254.045833333333
82 126 -166.25
154 126 -56.0
248 126 1.0
475 126 1.0
476 126 -1.0
86 127 -20.4166666666667
90 127 -20.4166666666667
94 127 -20.4166666666667
98 127 -20.4166666666667
158 127 -10.0
249 127 1.0
483 127 1.0
484 127 -1.0
102 128 -18.75
106 128 -18.75
162 128 -10.0
250 128 1.0
491 128 1.0
492 128 -1.0
110 129 -17.8125
114 129 -17.8125
118 129 -17.8125
122 129 -17.8125
166 129 -15.0
251 129 1.0
499 129 1.0
500 129 -1.0
126 130 -66.9375
130 130 -15.9375
170 130 -29.0
252 130 1.0
507 130 1.0
508 130 -1.0
134 131 -94.4571428571429
138 131 -57.0
174 131 -29.0
253 131 1.0
515 131 1.0
516 131 -1.0
142 132 -39.4285714285714
146 132 -39.4285714285714
178 132 -15.0
254 132 1.0
523 132 1.0
524 132 -1.0
182 133 -1.0
183 133 -1.0
184 133 -1.0
185 133 -1.0
214 133 1.0
215 133 1.0
216 133 1.0
217 133 1.0
246 133 -1.0
459 133 1.0
182 134 -46.0
531 134 1.0
532 134 -1.0
183 135 -40.0
215 135 -6.0
533 135 1.0
534 135 -1.0
184 136 -6.0
216 136 -40.0
535 136 1.0
536 136 -1.0
186 137 -1.0
187 137 -1.0
188 137 -1.0
189 137 -1.0
218 137 1.0
219 137 1.0
220 137 1.0
221 137 1.0
246 137 -1.0
460 137 1.0
186 138 -37.0
539 138 1.0
540 138 -1.0
187 139 -30.0
219 139 -7.0
541 139 1.0
542 139 -1.0
188 140 -7.0
220 140 -30.0
543 140 1.0
544 140 -1.0
190 141 -1.0
191 141 -1.0
192 141 -1.0
193 141 -1.0
222 141 1.0
223 141 1.0
224 141 1.0
225 141 1.0
246 141 -1.0
461 141 1.0
190 142 -22.0
547 142 1.0
548 142 -1.0
191 143 -15.0
223 143 -7.0
549 143 1.0
550 143 -1.0
192 144 -7.0
224 144 -15.0
551 144 1.0
552 144 -1.0
194 145 -1.0
195 145 -1.0
196 145 -1.0
197 145 -1.0
226 145 1.0
227 145 1.0
228 145 1.0
229 145 1.0
246 145 -1.0
462 145 1.0
194 146 -24.0
555 146 1.0
556 146 -1.0
195 147 -13.0
227 147 -11.0
557 147 1.0
558 147 -1.0
196 148 -11.0
228 148 -13.0
559 148 1.0
560 148 -1.0
198 149 -1.0
199 149 -1.0
200 149 -1.0
201 149 -1.0
230 149 1.0
231 149 1.0
232 149 1.0
233 149 1.0
246 149 -1.0
463 149 1.0
198 150 -23.0
563 150 1.0
564 150 -1.0
199 151 -13.0
231 151 -10.0
565 151 1.0
566 151 -1.0
200 152 -10.0
232 152 -13.0
567 152 1.0
568 152 -1.0
202 153 -1.0
203 153 -1.0
204 153 -1.0
205 153 -1.0
234 153 1.0
235 153 1.0
236 153 1.0
237 153 1.0
246 153 -1.0
464 153 1.0
202 154 -39.0
571 154 1.0
572 154 -1.0
203 155 -30.0
235 155 -9.0
573 155 1.0
574 155 -1.0
204 156 -9.0
236 156 -30.0
575 156 1.0
576 156 -1.0
206 157 -1.0
207 157 -1.0
208 157 -1.0
209 157 -1.0
238 157 1.0
239 157 1.0
240 157 1.0
241 157 1.0
246 157 -1.0
465 157 1.0
206 158 -28.0
579 158 1.0
580 158 -1.0
207 159 -20.0
239 159 -8.0
581 159 1.0
582 159 -1.0
208 160 -8.0
240 160 -20.0
583 160 1.0
584 160 -1.0
210 161 -1.0
211 161 -1.0
212 161 -1.0
213 161 -1.0
242 161 1.0
243 161 1.0
244 161 1.0
245 161 1.0
246 161 -1.0
466 161 1.0
210 162 -23.0
587 162 1.0
588 162 -1.0
211 163 -15.0
243 163 -8.0
589 163 1.0
590 163 -1.0
212 164 -8.0
244 164 -15.0
591 164 1.0
592 164 -1.0
217 165 -46.0
537 165 1.0
538 165 -1.0
221 166 -37.0
545 166 1.0
546 166 -1.0
225 167 -22.0
553 167 1.0
554 167 -1.0
229 168 -24.0
561 168 1.0
562 168 -1.0
233 169 -23.0
569 169 1.0
570 169 -1.0
237 170 -39.0
577 170 1.0
578 170 -1.0
241 171 -28.0
585 171 1.0
586 171 -1.0
245 172 -23.0
593 172 1.0
594 172 -1.0
255 173 -1.0
259 173 1.0
595 173 1.0
596 173 -1.0
256 174 -1.0
293 174 0.5
294 174 -0.5
296 174 -1.0
607 174 1.0
608 174 -1.0
257 175 -1.0
332 175 1.0
333 175 -1.0
335 175 -1.0
625 175 1.0
626 175 -1.0
258 176 -1.0
266 176 -1.0
627 176 1.0
628 176 -1.0
259 177 -1.0
269 177 1.0
273 177 -1.0
597 177 1.0
259 178 -1.0
275 178 1.0
279 178 -1.0
598 178 1.0
260 179 -1.0
272 179 -1.0
274 179 -1.0
599 179 1.0
260 180 -1.0
278 180 -1.0
280 180 -1.0
600 180 1.0
260 181 1.0
261 181 1.0
601 181 1.0
261 182 -1.0
262 182 1.0
603 182 1.0
262 183 -1.0
281 183 0.75
282 183 -0.75
283 183 -1.0
604 183 1.0
262 184 -1.0
285 184 1.0
289 184 -1.0
605 184 1.0
262 185 -1.0
291 185 1.0
292 185 -1.0
295 185 -1.0
606 185 1.0
263 186 1.0
281 186 -1.0
282 186 1.0
284 186 -1.0
609 186 1.0
263 187 -1.0
298 187 1.0
302 187 -1.0
612 187 1.0
263 188 -1.0
304 188 1.0
308 188 -1.0
613 188 1.0
264 189 1.0
291 189 -1.0
292 189 1.0
293 189 -1.0
294 189 1.0
297 189 -1.0
611 189 1.0
264 190 -1.0
316 190 0.9
317 190 -0.9
318 190 -1.0
614 190 1.0
264 191 -1.0
320 191 0.6
321 191 -0.6
322 191 -1.0
615 191 1.0
264 192 -1.0
324 192 1.0
328 192 -1.0
616 192 1.0
265 193 1.0
313 193 -1.0
315 193 -1.0
619 193 1.0
265 194 -1.0
343 194 1.0
347 194 -1.0
623 194 1.0
265 195 -1.0
349 195 1.0
357 195 -1.0
624 195 1.0
266 196 -1.0
316 196 -1.0
317 196 1.0
319 196 -1.0
620 196 1.0
266 197 1.0
353 197 1.0
358 197 -1.0
629 197 1.0
267 198 -1.0
630 198 1.0
267 199 -1.0
631 199 1.0
268 200 -1.0
632 200 1.0
268 201 -1.0
633 201 1.0
268 202 -1.0
634 202 1.0
271 203 1.0
272 203 1.0
277 204 1.0
278 204 1.2
287 205 1.0
288 205 1.5
288 206 -1.0
290 206 -1.0
310 206 1.0
314 206 -1.0
610 206 1.0
300 207 1.0
301 207 1.25
301 208 -1.0
303 208 -1.0
330 208 0.9
331 208 -0.9
334 208 -1.0
617 208 1.0
306 209 1.0
307 209 0.9
307 210 -1.0
309 210 -1.0
337 210 1.0
341 210 -1.0
618 210 1.0
312 211 1.0
313 211 1.0
326 212 1.0
327 212 1.1
339 213 1.0
340 213 1.0
345 214 1.0
346 214 0.7
351 215 1.0
352 215 0.65
355 216 1.0
356 216 0.65

BCOORD
295
36 -0.4
37 -0.3
38 -0.2
39 -0.5
40 -0.2
41 -0.3
42 35.0
43 36.0
44 25.0
45 24.0
46 30.0
70 148.75
71 148.75
72 148.75
73 148.75
74 148.75
75 148.75
76 148.75
77 148.75
78 254.045833333333
79 254.045833333333
80 254.045833333333
81 254.045833333333
82 166.25
83 166.25
84 166.25
85 166.25
86 20.4166666666667
87 20.4166666666667
88 20.4166666666667
89 20.4166666666667
90 20.4166666666667
91 20.4166666666667
92 20.4166666666667
93 20.4166666666667
94 20.4166666666667
95 20.4166666666667
96 20.4166666666667
97 20.4166666666667
98 20.4166666666667
99 20.4166666666667
100 20.4166666666667
101 20.4166666666667
102 18.75
103 18.75
104 18.75
105 18.75
106 18.75
107 18.75
108 18.75
109 18.75
110 17.8125
111 17.8125
112 17.8125
113 17.8125
114 17.8125
115 17.8125
116 17.8125
117 17.8125
118 17.8125
119 17.8125
120 17.8125
121 17.8125
122 17.8125
123 17.8125
124 17.8125
125 17.8125
126 66.9375
127 66.9375
128 66.9375
129 66.9375
130 15.9375
131 15.9375
132 15.9375
133 15.9375
134 94.4571428571429
135 94.4571428571429
136 94.4571428571429
137 94.4571428571429
138 57.0
139 57.0
140 57.0
141 57.0
142 39.4285714285714
143 39.4285714285714
144 39.4285714285714
145 39.4285714285714
146 39.4285714285714
147 39.4285714285714
148 39.4285714285714
149 39.4285714285714
150 35.0
151 35.0
152 35.0
153 35.0
154 96.0
155 96.0
156 96.0
157 96.0
158 25.0
159 25.0
160 25.0
161 25.0
162 25.0
163 25.0
164 25.0
165 25.0
166 25.0
167 25.0
168 25.0
169 25.0
170 49.0
171 49.0
172 49.0
173 49.0
174 54.0
175 54.0
176 54.0
177 54.0
178 30.0
179 30.0
180 30.0
181 30.0
182 46.0
183 46.0
184 46.0
185 46.0
186 37.0
187 37.0
188 37.0
189 37.0
190 22.0
191 22.0
192 22.0
193 22.0
194 24.0
195 24.0
196 24.0
197 24.0
198 23.0
199 23.0
200 23.0
201 23.0
202 39.0
203 39.0
204 39.0
205 39.0
206 28.0
207 28.0
208 28.0
209 28.0
210 23.0
211 23.0
212 23.0
213 23.0
246 4000.0
247 -1.0
248 -1.0
249 -1.0
250 -1.0
251 -1.0
252 -1.0
253 -1.0
254 -1.0
269 1.0
270 1.0
272 1.0
275 1.0
276 1.0
278 1.0
281 1.0
282 1.0
285 1.0
286 1.0
288 1.0
291 1.0
292 1.0
293 1.0
294 1.0
298 1.0
299 1.0
301 1.0
304 1.0
305 1.0
307 1.0
310 1.0
311 1.0
313 1.0
316 1.0
317 1.0
320 1.0
321 1.0
324 1.0
325 1.0
327 1.0
330 1.0
331 1.0
332 1.0
333 1.0
337 1.0
338 1.0
340 1.0
343 1.0
344 1.0
346 1.0
349 1.0
350 1.0
352 1.0
353 1.0
354 1.0
356 1.0
360 -1.0
468 1.0
470 1.0
472 1.0
474 1.0
476 1.0
478 1.0
480 1.0
482 1.0
484 1.0
486 1.0
488 1.0
490 1.0
492 1.0
494 1.0
496 1.0
498 1.0
500 1.0
502 1.0
504 1.0
506 1.0
508 1.0
510 1.0
512 1.0
514 1.0
516 1.0
518 1.0
520 1.0
522 1.0
524 1.0
526 1.0
528 1.0
530 1.0
532 1.0
534 1.0
536 1.0
538 1.0
540 1.0
542 1.0
544 1.0
546 1.0
548 1.0
550 1.0
552 1.0
554 1.0
556 1.0
558 1.0
560 1.0
562 1.0
564 1.0
566 1.0
568 1.0
570 1.0
572 1.0
574 1.0
576 1.0
578 1.0
580 1.0
582 1.0
584 1.0
586 1.0
588 1.0
590 1.0
592 1.0
594 1.0
596 10.0
608 7.0
626 5.0
628 5.0
640 1.0
642 1.0
644 1.0
646 1.0
648 1.0
650 1.0
652 1.0
654 1.0
656 1.0
658 1.0
660 1.0
662 1.0
664 1.0
666 1.0
668 1.0
